qbf_easy_train/easy_3596_SAT.qdimacs
p cnf 18 37
a 10 11 0
e 1 2 3 4 5 6 7 8 9 12 13 14 15 16 17 18 0
-3 1 0
-3 2 0
-1 -2 3 0
-6 -4 0
-6 -5 0
4 5 6 0
4 7 -8 0
-4 -7 -8 0
4 -7 8 0
-4 7 8 0
-8 9 -10 0
8 -9 -10 0
-8 -9 10 0
8 9 10 0
12 -11 0
12 -7 0
11 7 -12 0
13 10 0
13 12 0
-10 -12 -13 0
14 -6 0
14 -13 0
6 13 -14 0
-15 -3 0
-15 14 0
3 -14 15 0
-5 16 -17 0
5 -16 -17 0
-5 -16 17 0
5 16 17 0
18 15 0
18 -17 0
-15 17 -18 0
-3 10 -16 0
10 6 -9 0
8 2 18 9 -10 0
18 0
