sat_easy_train/easy_3596_SAT.dimacs
p cnf 97 315
2 3 -4 0
-2 -3 -4 0
2 -3 4 0
-2 3 4 0
5 -1 0
5 -4 0
1 4 -5 0
-8 7 0
-8 -7 0
6 8 -9 0
-6 -8 -9 0
6 -8 9 0
-6 8 9 0
-5 9 -10 0
5 -9 -10 0
-5 -9 10 0
5 9 10 0
1 -11 -12 0
-1 11 -12 0
1 11 12 0
-1 -11 12 0
14 13 -15 0
-14 -13 -15 0
14 -13 15 0
-14 13 15 0
17 15 0
17 -16 0
-15 16 -17 0
-13 -17 -18 0
13 17 -18 0
-13 17 18 0
13 -17 18 0
-19 -12 0
-19 18 0
12 -18 19 0
10 -19 -20 0
-10 19 -20 0
10 19 20 0
-10 -19 20 0
-23 21 0
-23 -22 0
-21 22 23 0
-24 -17 0
-24 17 0
25 -23 0
25 24 0
23 -24 -25 0
-27 -25 0
-27 26 0
25 -26 27 0
27 28 -29 0
-27 -28 -29 0
27 -28 29 0
-27 28 29 0
8 13 -30 0
-8 -13 -30 0
8 -13 30 0
-8 13 30 0
-32 31 0
-32 8 0
-31 -8 32 0
-32 23 -33 0
32 -23 -33 0
-32 -23 33 0
32 23 33 0
34 -30 0
34 33 0
30 -33 -34 0
-35 -29 0
-35 -34 0
29 34 35 0
-36 3 0
-36 23 0
-3 -23 36 0
37 -35 0
37 36 0
35 -36 -37 0
20 -37 -38 0
-20 37 -38 0
20 37 38 0
-20 -37 38 0
-39 24 0
-39 -15 0
-24 15 39 0
31 3 -40 0
-31 -3 -40 0
31 -3 40 0
-31 3 40 0
39 40 -41 0
-39 -40 -41 0
39 -40 41 0
-39 40 41 0
12 -41 -42 0
-12 41 -42 0
12 41 42 0
-12 -41 42 0
44 -14 0
44 3 0
14 -3 -44 0
-45 -43 0
-45 44 0
43 -44 45 0
16 -11 -46 0
-16 11 -46 0
16 11 46 0
-16 -11 46 0
47 -46 0
47 -1 0
46 1 -47 0
48 -45 0
48 -47 0
45 47 -48 0
49 -16 0
49 13 0
16 -13 -49 0
48 49 -50 0
-48 -49 -50 0
48 -49 50 0
-48 49 50 0
52 6 0
52 -22 0
-6 22 -52 0
-53 51 0
-53 52 0
-51 -52 53 0
54 53 0
54 -22 0
-53 22 -54 0
31 12 -55 0
-31 -12 -55 0
31 -12 55 0
-31 12 55 0
56 33 0
56 55 0
-33 -55 -56 0
57 -54 0
57 56 0
54 -56 -57 0
51 6 -58 0
-51 -6 -58 0
51 -6 58 0
-51 6 58 0
59 13 0
59 -58 0
-13 58 -59 0
60 12 0
60 59 0
-12 -59 -60 0
-61 60 0
-61 -30 0
-60 30 61 0
62 -7 0
62 61 0
7 -61 -62 0
63 -14 0
63 -31 0
14 31 -63 0
-64 -41 0
-64 -63 0
41 63 64 0
65 -62 0
65 64 0
62 -64 -65 0
66 2 0
66 -58 0
-2 58 -66 0
67 -66 0
67 -8 0
66 8 -67 0
-68 -4 0
-68 -4 0
4 68 0
-68 39 -69 0
68 -39 -69 0
-68 -39 69 0
68 39 69 0
-67 -69 -70 0
67 69 -70 0
-67 69 70 0
67 -69 70 0
-65 -70 -71 0
65 70 -71 0
-65 70 71 0
65 -70 71 0
57 -71 -72 0
-57 71 -72 0
57 71 72 0
-57 -71 72 0
-21 -5 -73 0
21 5 -73 0
-21 5 73 0
21 -5 73 0
74 -9 0
74 8 0
9 -8 -74 0
75 73 0
75 -74 0
-73 74 -75 0
-68 -75 -76 0
68 75 -76 0
-68 75 76 0
68 -75 76 0
73 16 -77 0
-73 -16 -77 0
73 -16 77 0
-73 16 77 0
-78 77 0
-78 26 0
-77 -26 78 0
-76 -78 -79 0
76 78 -79 0
-76 78 79 0
76 -78 79 0
-80 72 0
-80 79 0
-72 -79 80 0
-81 50 0
-81 -80 0
-50 80 81 0
-82 4 0
-82 -46 0
-4 46 82 0
-83 -81 0
-83 82 0
81 -82 83 0
-84 46 0
-84 -24 0
-46 24 84 0
68 -9 -85 0
-68 9 -85 0
68 9 85 0
-68 -9 85 0
15 85 -86 0
-15 -85 -86 0
15 -85 86 0
-15 85 86 0
-5 -58 -87 0
5 58 -87 0
-5 58 87 0
5 -58 87 0
88 -86 0
88 87 0
86 -87 -88 0
89 -84 0
89 -88 0
84 88 -89 0
13 -75 -90 0
-13 75 -90 0
13 75 90 0
-13 -75 90 0
91 90 0
91 -6 0
-90 6 -91 0
92 12 0
92 -39 0
-12 39 -92 0
-93 -91 0
-93 -92 0
91 92 93 0
94 -89 0
94 -93 0
89 93 -94 0
83 -94 -95 0
-83 94 -95 0
83 94 95 0
-83 -94 95 0
42 -95 -96 0
-42 95 -96 0
42 95 96 0
-42 -95 96 0
97 -38 0
97 96 0
38 -96 -97 0
25 41 0
-84 -20 -15 0
85 -56 0
78 42 60 0
21 -8 0
54 27 -93 -85 0
22 3 0
-51 68 -11 20 90 -86 0
-40 55 -69 9 0
-9 -40 -16 90 -23 -64 0
-72 49 -41 82 -31 0
45 74 -37 -22 43 -92 0
31 -4 -37 -6 -69 0
-66 -96 -78 -43 0
-59 89 15 55 0
56 69 -91 -58 0
-85 -75 0
-25 54 24 -94 41 -8 0
-14 45 12 0
4 -80 -84 45 70 0
-69 -94 -72 -45 44 0
89 41 -22 0
-16 -48 -3 84 0
55 12 56 0
-66 38 -52 0
9 70 0
-80 -34 -49 0
-19 -32 0
22 48 0
17 -95 0
60 -91 27 0
60 2 30 58 5 0
-43 -30 -91 -97 61 -54 0
-50 -4 -45 64 -1 0
15 -56 -26 0
-54 -4 0
91 -82 -85 95 -12 -77 0
-83 66 -38 -49 0
-21 62 -42 0
73 83 81 0
-51 78 45 59 0
97 0
